#######################



#######################
Set parameter TimeLimit to value 500
Set parameter SoftMemLimit to value 125
Set parameter MIPFocus to value 2
Set parameter LogFile to value 1202-MIPFocus2-Presolve2-TimeLimit500-k16x240-6.log
Set parameter Presolve to value 2
Set parameter Seed to value 16
Using license file /opt/gurobi/gurobi.lic

Gurobi Optimizer version 12.0.2 build v12.0.2rc0 (linux64 - "Ubuntu 22.04.4 LTS")
Copyright (c) 2025, Gurobi Optimization, LLC

Read MPS format model from file /miplib2010/k16x240.mps.bz2
Reading time = 0.00 seconds
k16x240: 256 rows, 480 columns, 960 nonzeros

Using Gurobi shared library /nfs/shared/static-builds/gurobi1202

CPU model: Intel(R) Xeon(R) E-2388G CPU @ 3.20GHz, instruction set [SSE2|AVX|AVX2|AVX512]
Thread count: 8 physical cores, 16 logical processors, using up to 16 threads

Non-default parameters:
TimeLimit  500
SoftMemLimit  125
MIPFocus  2
Presolve  2
Seed  16

Optimize a model with 256 rows, 480 columns and 960 nonzeros
Model fingerprint: 0x4e80885f
Variable types: 240 continuous, 240 integer (240 binary)
Coefficient statistics:
  Matrix range     [1e+00, 1e+03]
  Objective range  [1e+00, 1e+03]
  Bounds range     [1e+00, 1e+03]
  RHS range        [4e+00, 4e+02]
Found heuristic solution: objective 20319.000000
Presolve time: 0.00s
Presolved: 256 rows, 480 columns, 960 nonzeros
Variable types: 240 continuous, 240 integer (240 binary)
Root relaxation presolve removed 241 rows and 240 columns
Root relaxation presolved: 15 rows, 240 columns, 450 nonzeros


Root relaxation: objective 2.769838e+03, 16 iterations, 0.00 seconds (0.00 work units)

    Nodes    |    Current Node    |     Objective Bounds      |     Work
 Expl Unexpl |  Obj  Depth IntInf | Incumbent    BestBd   Gap | It/Node Time

     0     0 2769.83800    0   14 20319.0000 2769.83800  86.4%     -    0s
H    0     0                    11359.000000 2769.83800  75.6%     -    0s
H    0     0                    11259.000000 2769.83800  75.4%     -    0s
H    0     0                    11204.000000 2769.83800  75.3%     -    0s
     0     0 8116.87580    0   26 11204.0000 8116.87580  27.6%     -    0s
H    0     0                    11103.000000 8190.91086  26.2%     -    0s
H    0     0                    11094.000000 8190.91086  26.2%     -    0s
H    0     0                    11093.000000 8190.91086  26.2%     -    0s
H    0     0                    11077.000000 8190.91086  26.1%     -    0s
     0     0 8588.30479    0   25 11077.0000 8588.30479  22.5%     -    0s
H    0     0                    11061.000000 8613.92228  22.1%     -    0s
     0     0 8613.92228    0   22 11061.0000 8613.92228  22.1%     -    0s
     0     0 8720.59081    0   23 11061.0000 8720.59081  21.2%     -    0s
H    0     0                    10764.000000 8724.60340  18.9%     -    0s
     0     0 8841.67029    0   27 10764.0000 8841.67029  17.9%     -    0s
     0     0 8855.19930    0   41 10764.0000 8855.19930  17.7%     -    0s
     0     0 8857.18068    0   43 10764.0000 8857.18068  17.7%     -    0s
     0     0 9002.45084    0   35 10764.0000 9002.45084  16.4%     -    0s
     0     0 9006.47775    0   40 10764.0000 9006.47775  16.3%     -    0s
     0     0 9081.93575    0   38 10764.0000 9081.93575  15.6%     -    0s
     0     0 9084.41300    0   38 10764.0000 9084.41300  15.6%     -    0s
     0     2 9087.52790    0   38 10764.0000 9087.52790  15.6%     -    0s
H   68   101                    10678.000000 9130.41474  14.5%  26.1    0s
H 1013   760                    10674.000000 9352.35345  12.4%  18.5    0s
 27648  9672 10496.8064   27   24 10674.0000 10052.0246  5.83%  26.2    5s
 70308 14965     cutoff   33      10674.0000 10254.3365  3.93%  26.7   10s
 107739 10557 10646.3926   31   30 10674.0000 10406.7262  2.50%  26.7   15s

Cutting planes:
  Gomory: 2
  Lift-and-project: 12
  Cover: 81
  Implied bound: 9
  Dual implied bound: 9
  MIR: 179
  Mixing: 3
  Flow cover: 265
  Flow path: 52
  Inf proof: 2
  Zero half: 6
  Network: 43

Explored 129992 nodes (3368628 simplex iterations) in 17.54 seconds (25.18 work units)
Thread count was 16 (of 16 available processors)

Solution count 10: 10674 10678 10764 ... 11259

Optimal solution found (tolerance 1.00e-04)
Best objective 1.067400000000e+04, best bound 1.067400000000e+04, gap 0.0000%
